(declare-const x0 Bool)
(declare-const x1 Bool)
(declare-const x2 Bool)
(declare-const x3 Bool)
(declare-const x4 Bool)
(declare-const x5 Bool)
(declare-const x6 Bool)
(declare-const x7 Bool)
(declare-const x8 Bool)
(declare-const x9 Bool)
(declare-const x10 Bool)
(declare-const x11 Bool)
(declare-const x12 Bool)
(declare-const x13 Bool)
(declare-const x14 Bool)
(declare-const x15 Bool)
(declare-const x16 Bool)
(declare-const x17 Bool)
(declare-const x18 Bool)
(declare-const x19 Bool)
(declare-const x20 Bool)
(declare-const x21 Bool)
(declare-const x22 Bool)
(declare-const x23 Bool)
(declare-const x24 Bool)
(declare-const x25 Bool)
(declare-const x26 Bool)
(declare-const x27 Bool)
(declare-const x28 Bool)
(declare-const x29 Bool)
(declare-const x30 Bool)
(declare-const x31 Bool)
(assert (= (or false (and false x19)) (= (= false true) (and x3 x0))))
(assert x3)
(assert (= false (or false false)))
(assert (= (= x12 false) x2))
(assert true)
(assert (= x28 (= x20 false)))
(assert (or (and (or true x18) (= x28 x20)) (and x28 (and x19 false))))
(assert (= (or x24 x9) true))
(assert x27)
(check-sat)
